55272 100 1100 12 38 25 42 20 45 13 43 28 35 21 28 19 7 26 19 27 13 40 41 45 35 22 37 44 21 16 25 10 43 6 31 25 28 19 24 25 10 16 27 21 37 46 9 35 8 20 16 48 27 23 13 21 16 23 29 36 28 7 49 44 35 21 35 20 10 38 20 42 15 29 41 24 41 17 36 42 47 18 42 47 7 27 15 7 26 18 36 5 17 34 20 43 35 7 43 13 34 31 13 143 295 123 242 96 295 113 204 247 207 183 141 212 129 140 153 118 59 242 249 256 181 188 192 211 91 96 182 66 276 89 203 221 201 62 72 154 88 235 95 137 252 224 106 214 169 103 77 271 201 136 134 138 165 212 180 197 254 167 299 170 260 55 145 247 201 188 267 287 170 213 289 144 153 144 83 135 272 73 282 281 110 236 120 52 176 133 80 50 116 180 79 249 132 127 264 110 276 244 127
